&GLOBAL
  PROJECT carbonyl_sanity_end_on_O_vertical_geo_opt
  RUN_TYPE GEO_OPT
  PRINT_LEVEL LOW
&END GLOBAL
&FORCE_EVAL
  METHOD Quickstep
  &DFT
    BASIS_SET_FILE_NAME /opt/cp2k_sanity/env/share/cp2k/data/BASIS_MOLOPT
    POTENTIAL_FILE_NAME /opt/cp2k_sanity/env/share/cp2k/data/GTH_POTENTIALS
    CHARGE 0
    MULTIPLICITY 2
    LSD
    &MGRID
      CUTOFF 150
      REL_CUTOFF 30
    &END MGRID
    &SCF
      EPS_SCF 1.0E-5
      MAX_SCF 260
      SCF_GUESS ATOMIC
      &OT
        PRECONDITIONER FULL_SINGLE_INVERSE
        MINIMIZER DIIS
      &END OT
      &OUTER_SCF
        MAX_SCF 10
      &END OUTER_SCF
    &END SCF
    &XC
      &XC_FUNCTIONAL PBE
      &END XC_FUNCTIONAL
      &VDW_POTENTIAL
        POTENTIAL_TYPE PAIR_POTENTIAL
        &PAIR_POTENTIAL
          TYPE DFTD3(BJ)
          PARAMETER_FILE_NAME /opt/cp2k_sanity/env/share/cp2k/data/dftd3.dat
          REFERENCE_FUNCTIONAL PBE
        &END PAIR_POTENTIAL
      &END VDW_POTENTIAL
    &END XC
    &POISSON
      PERIODIC XYZ
    &END POISSON
  &END DFT
  &SUBSYS
    &CELL
      A 19.67609717 0.00000000 0.00000000
      B 0.00000000 31.62000000 0.00000000
      C 0.00000000 0.00000000 24.00000000
      PERIODIC XYZ
    &END CELL
    &COORD
      C            0.50000000     8.59000000    12.00000000
      C            1.72975600     9.30000000    12.00000000
      C            1.72975600    10.72000000    12.00000000
      C            0.50000000    11.43000000    12.00000000
      C            0.50000000    12.85000000    12.00000000
      C            1.72975600    13.56000000    12.00000000
      C            1.72975600    14.98000000    12.00000000
      C            0.50000000    15.69000000    12.00000000
      C            0.50000000    17.11000000    12.00000000
      C            1.72975600    17.82000000    12.00000000
      C            1.72975600    19.24000000    12.00000000
      C            0.50000000    19.95000000    12.00000000
      C            0.50000000    21.37000000    12.00000000
      C            1.72975600    22.08000000    12.00000000
      C            1.72975600    23.50000000    12.00000000
      C            0.50000000    24.21000000    12.00000000
      C            2.95951200     8.59000000    12.00000000
      C            4.18926800     9.30000000    12.00000000
      C            4.18926800    10.72000000    12.00000000
      C            2.95951200    11.43000000    12.00000000
      C            2.95951200    12.85000000    12.00000000
      C            4.18926800    13.56000000    12.00000000
      C            4.18926800    14.98000000    12.00000000
      C            2.95951200    15.69000000    12.00000000
      C            2.95951200    17.11000000    12.00000000
      C            4.18926800    17.82000000    12.00000000
      C            4.18926800    19.24000000    12.00000000
      C            2.95951200    19.95000000    12.00000000
      C            2.95951200    21.37000000    12.00000000
      C            4.18926800    22.08000000    12.00000000
      C            4.18926800    23.50000000    12.00000000
      C            2.95951200    24.21000000    12.00000000
      C            5.41902400     8.59000000    12.00000000
      C            6.64878000     9.30000000    12.00000000
      C            6.64878000    10.72000000    12.00000000
      C            5.41902400    11.43000000    12.00000000
      C            5.41902400    12.85000000    12.00000000
      C            6.64878000    13.56000000    12.00000000
      C            6.64878000    14.98000000    12.00000000
      C            5.41902400    15.69000000    12.00000000
      C            5.41902400    17.11000000    12.00000000
      C            6.64878000    17.82000000    12.00000000
      C            6.64878000    19.24000000    12.00000000
      C            5.41902400    19.95000000    12.00000000
      C            5.41902400    21.37000000    12.00000000
      C            6.64878000    22.08000000    12.00000000
      C            6.64878000    23.50000000    12.00000000
      C            5.41902400    24.21000000    12.00000000
      C            7.87853600     8.59000000    12.00000000
      C            9.10829300     9.30000000    12.00000000
      C            9.10829300    10.72000000    12.00000000
      C            7.87853600    11.43000000    12.00000000
      C            7.87853600    12.85000000    12.00000000
      C            9.10829300    13.56000000    12.00000000
      C            9.10829300    14.98000000    12.00000000
      C            7.87853600    15.69000000    12.00000000
      C            7.87853600    17.11000000    12.00000000
      C            9.10829300    17.82000000    12.00000000
      C            9.10829300    19.24000000    12.00000000
      C            7.87853600    19.95000000    12.00000000
      C            7.87853600    21.37000000    12.00000000
      C            9.10829300    22.08000000    12.00000000
      C            9.10829300    23.50000000    12.00000000
      C            7.87853600    24.21000000    12.00000000
      C           10.33804900     8.59000000    12.00000000
      C           11.56780500     9.30000000    12.00000000
      C           11.56780500    10.72000000    12.00000000
      C           10.33804900    11.43000000    12.00000000
      C           10.33804900    12.85000000    12.00000000
      C           11.56780500    13.56000000    12.00000000
      C           11.56780500    14.98000000    12.00000000
      C           10.33804900    15.69000000    12.00000000
      C           10.33804900    17.11000000    12.00000000
      C           11.56780500    17.82000000    12.00000000
      C           11.56780500    19.24000000    12.00000000
      C           10.33804900    19.95000000    12.00000000
      C           10.33804900    21.37000000    12.00000000
      C           11.56780500    22.08000000    12.00000000
      C           11.56780500    23.50000000    12.00000000
      C           10.33804900    24.21000000    12.00000000
      C           12.79756100     8.59000000    12.00000000
      C           14.02731700     9.30000000    12.00000000
      C           14.02731700    10.72000000    12.00000000
      C           12.79756100    11.43000000    12.00000000
      C           12.79756100    12.85000000    12.00000000
      C           14.02731700    13.56000000    12.00000000
      C           14.02731700    14.98000000    12.00000000
      C           12.79756100    15.69000000    12.00000000
      C           12.79756100    17.11000000    12.00000000
      C           14.02731700    17.82000000    12.00000000
      C           14.02731700    19.24000000    12.00000000
      C           12.79756100    19.95000000    12.00000000
      C           12.79756100    21.37000000    12.00000000
      C           14.02731700    22.08000000    12.00000000
      C           14.02731700    23.50000000    12.00000000
      C           12.79756100    24.21000000    12.00000000
      C           15.25707300     8.59000000    12.00000000
      C           16.48682900     9.30000000    12.00000000
      C           16.48682900    10.72000000    12.00000000
      C           15.25707300    11.43000000    12.00000000
      C           15.25707300    12.85000000    12.00000000
      C           16.48682900    13.56000000    12.00000000
      C           16.48682900    14.98000000    12.00000000
      C           15.25707300    15.69000000    12.00000000
      C           15.25707300    17.11000000    12.00000000
      C           16.48682900    17.82000000    12.00000000
      C           16.48682900    19.24000000    12.00000000
      C           15.25707300    19.95000000    12.00000000
      C           15.25707300    21.37000000    12.00000000
      C           16.48682900    22.08000000    12.00000000
      C           16.48682900    23.50000000    12.00000000
      C           15.25707300    24.21000000    12.00000000
      C           17.71658500     8.59000000    12.00000000
      C           18.94634100     9.30000000    12.00000000
      C           18.94634100    10.72000000    12.00000000
      C           17.71658500    11.43000000    12.00000000
      C           17.71658500    12.85000000    12.00000000
      C           18.94634100    13.56000000    12.00000000
      C           18.94634100    14.98000000    12.00000000
      C           17.71658500    15.69000000    12.00000000
      C           17.71658500    17.11000000    12.00000000
      C           18.94634100    17.82000000    12.00000000
      C           18.94634100    19.24000000    12.00000000
      C           17.71658500    19.95000000    12.00000000
      C           17.71658500    21.37000000    12.00000000
      C           18.94634100    22.08000000    12.00000000
      C           18.94634100    23.50000000    12.00000000
      C           17.71658500    24.21000000    12.00000000
      H            0.50000000     7.50000000    12.00000000
      H            0.50000000    25.30000000    12.00000000
      H            2.95951200     7.50000000    12.00000000
      H            2.95951200    25.30000000    12.00000000
      H            5.41902400     7.50000000    12.00000000
      H            5.41902400    25.30000000    12.00000000
      H            7.87853600     7.50000000    12.00000000
      H            7.87853600    25.30000000    12.00000000
      H           10.33804900     7.50000000    12.00000000
      H           12.79756100     7.50000000    12.00000000
      H           12.79756100    25.30000000    12.00000000
      H           15.25707300     7.50000000    12.00000000
      H           15.25707300    25.30000000    12.00000000
      H           17.71658500     7.50000000    12.00000000
      H           17.71658500    25.30000000    12.00000000
      O           10.33804900    25.44000000    12.00000000
      I           10.33804900    25.34000000    15.07500000
      I           10.33804900    25.34000000    17.82500000
    &END COORD
    &KIND C
      BASIS_SET DZVP-MOLOPT-SR-GTH
      POTENTIAL GTH-PBE-q4
    &END KIND
    &KIND H
      BASIS_SET DZVP-MOLOPT-SR-GTH
      POTENTIAL GTH-PBE-q1
    &END KIND
    &KIND O
      BASIS_SET DZVP-MOLOPT-SR-GTH
      POTENTIAL GTH-PBE-q6
    &END KIND
    &KIND I
      BASIS_SET DZVP-MOLOPT-SR-GTH
      POTENTIAL GTH-PBE-q7
    &END KIND
  &END SUBSYS
&END FORCE_EVAL

&MOTION
  &CONSTRAINT
    &FIXED_ATOMS
      LIST 1 2 3 4 5 6 7 8 9 10 11 12 13 14 15 16 17 18 19 20 21 22 23 24 25 26 27 28 29 30 31 32 33 34 35 36 37 38 39 40 41 42 43 44 45 46 47 48 49 50 51 52 53 54 55 56 57 58 59 60 61 62 63 64 65 66 67 68 69 70 71 72 73 74 75 76 77 78 79 80 81 82 83 84 85 86 87 88 89 90 91 92 93 94 95 96 97 98 99 100 101 102 103 104 105 106 107 108 109 110 111 112 113 114 115 116 117 118 119 120 121 122 123 124 125 126 127 128 129 130 131 132 133 134 135 136 137 138 139 140 141 142 143 144
      COMPONENTS_TO_FIX XYZ
    &END FIXED_ATOMS
  &END CONSTRAINT
  &GEO_OPT
    OPTIMIZER BFGS
    MAX_ITER 100
    MAX_FORCE 8.0E-4
  &END GEO_OPT
  &PRINT
    &TRAJECTORY
      FORMAT XYZ
      ADD_LAST NUMERIC
    &END TRAJECTORY
  &END PRINT
&END MOTION
