&GLOBAL
  PROJECT r514_OH_near_2i2_complex_edensity
  RUN_TYPE ENERGY
  PRINT_LEVEL LOW
&END GLOBAL
&FORCE_EVAL
  METHOD Quickstep
  &DFT
    BASIS_SET_FILE_NAME /opt/r514_2i2_density/env/share/cp2k/data/BASIS_MOLOPT
    POTENTIAL_FILE_NAME /opt/r514_2i2_density/env/share/cp2k/data/GTH_POTENTIALS
    CHARGE 0
    MULTIPLICITY 1
    &MGRID
      CUTOFF 150
      REL_CUTOFF 30
    &END MGRID
    &SCF
      EPS_SCF 1.0E-5
      MAX_SCF 260
      SCF_GUESS ATOMIC
      &OT
        PRECONDITIONER FULL_SINGLE_INVERSE
        MINIMIZER DIIS
      &END OT
      &OUTER_SCF
        MAX_SCF 10
      &END OUTER_SCF
    &END SCF
    &XC
      &XC_FUNCTIONAL PBE
      &END XC_FUNCTIONAL
      &VDW_POTENTIAL
        POTENTIAL_TYPE PAIR_POTENTIAL
        &PAIR_POTENTIAL
          TYPE DFTD3(BJ)
          PARAMETER_FILE_NAME /opt/r514_2i2_density/env/share/cp2k/data/dftd3.dat
          REFERENCE_FUNCTIONAL PBE
        &END PAIR_POTENTIAL
      &END VDW_POTENTIAL
    &END XC
    &POISSON
      PERIODIC XYZ
    &END POISSON
    &PRINT
      &E_DENSITY_CUBE ON
        STRIDE 2 2 2
      &END E_DENSITY_CUBE
    &END PRINT
  &END DFT
  &SUBSYS
    &CELL
      A 14.75707288 0.00000000 0.00000000
      B 0.00000000 25.56000000 0.00000000
      C 0.00000000 0.00000000 24.00000000
      PERIODIC XYZ
    &END CELL
    &COORD
      C            0.50000000     0.50000000    12.00000000
      C            1.72975600     1.21000000    12.00000000
      C            1.72975600     2.63000000    12.00000000
      C            0.50000000     3.34000000    12.00000000
      C            0.50000000     4.76000000    12.00000000
      C            1.72975600     5.47000000    12.00000000
      C            1.72975600     6.89000000    12.00000000
      C            0.50000000     7.60000000    12.00000000
      C            0.50000000     9.02000000    12.00000000
      C            1.72975600     9.73000000    12.00000000
      C            1.72975600    11.15000000    12.00000000
      C            0.50000000    11.86000000    12.00000000
      C            0.50000000    13.28000000    12.00000000
      C            1.72975600    13.99000000    12.00000000
      C            1.72975600    15.41000000    12.00000000
      C            0.50000000    16.12000000    12.00000000
      C            0.50000000    17.54000000    12.00000000
      C            1.72975600    18.25000000    12.00000000
      C            1.72975600    19.67000000    12.00000000
      C            0.50000000    20.38000000    12.00000000
      C            0.50000000    21.80000000    12.00000000
      C            1.72975600    22.51000000    12.00000000
      C            1.72975600    23.93000000    12.00000000
      C            0.50000000    24.64000000    12.00000000
      C            2.95951200     0.50000000    12.00000000
      C            4.18926800     1.21000000    12.00000000
      C            4.18926800     2.63000000    12.00000000
      C            2.95951200     3.34000000    12.00000000
      C            2.95951200     4.76000000    12.00000000
      C            4.18926800     5.47000000    12.00000000
      C            4.18926800     6.89000000    12.00000000
      C            2.95951200     7.60000000    12.00000000
      C            2.95951200     9.02000000    12.00000000
      C            4.18926800     9.73000000    12.00000000
      C            4.18926800    11.15000000    12.00000000
      C            2.95951200    11.86000000    12.00000000
      C            2.95951200    13.28000000    12.00000000
      C            4.18926800    13.99000000    12.00000000
      C            4.18926800    15.41000000    12.00000000
      C            2.95951200    16.12000000    12.00000000
      C            2.95951200    17.54000000    12.00000000
      C            4.18926800    18.25000000    12.00000000
      C            4.18926800    19.67000000    12.00000000
      C            2.95951200    20.38000000    12.00000000
      C            2.95951200    21.80000000    12.00000000
      C            4.18926800    22.51000000    12.00000000
      C            4.18926800    23.93000000    12.00000000
      C            2.95951200    24.64000000    12.00000000
      C            5.41902400     0.50000000    12.00000000
      C            6.64878000     1.21000000    12.00000000
      C            6.64878000     2.63000000    12.00000000
      C            5.41902400     3.34000000    12.00000000
      C            5.41902400     4.76000000    12.00000000
      C            6.64878000     5.47000000    12.00000000
      C            6.64878000     6.89000000    12.00000000
      C            5.41902400     7.60000000    12.00000000
      C            5.41902400     9.02000000    12.00000000
      C            6.64878000     9.73000000    12.00000000
      C            6.64878000    11.15000000    12.00000000
      C            5.41902400    11.86000000    12.00000000
      C            5.41902400    13.28000000    12.00000000
      C            6.64878000    13.99000000    12.00000000
      C            6.64878000    15.41000000    12.00000000
      C            5.41902400    16.12000000    12.00000000
      C            5.41902400    17.54000000    12.00000000
      C            6.64878000    18.25000000    12.00000000
      C            6.64878000    19.67000000    12.00000000
      C            5.41902400    20.38000000    12.00000000
      C            5.41902400    21.80000000    12.00000000
      C            6.64878000    22.51000000    12.00000000
      C            6.64878000    23.93000000    12.00000000
      C            5.41902400    24.64000000    12.00000000
      C            7.87853600     0.50000000    12.00000000
      C            9.10829300     1.21000000    12.00000000
      C            9.10829300     2.63000000    12.00000000
      C            7.87853600     3.34000000    12.00000000
      C            7.87853600     4.76000000    12.00000000
      C            9.10829300     5.47000000    12.00000000
      C            9.10829300     6.89000000    12.00000000
      C            7.87853600     7.60000000    12.00000000
      C            7.87853600     9.02000000    12.00000000
      C            9.10829300     9.73000000    12.00000000
      C            9.10829300    11.15000000    12.00000000
      C            7.87853600    11.86000000    12.00000000
      C            7.87853600    13.28000000    12.00000000
      C            9.10829300    13.99000000    12.00000000
      C            9.10829300    15.41000000    12.00000000
      C            7.87853600    16.12000000    12.00000000
      C            7.87853600    17.54000000    12.00000000
      C            9.10829300    18.25000000    12.00000000
      C            9.10829300    19.67000000    12.00000000
      C            7.87853600    20.38000000    12.00000000
      C            7.87853600    21.80000000    12.00000000
      C            9.10829300    22.51000000    12.00000000
      C            9.10829300    23.93000000    12.00000000
      C            7.87853600    24.64000000    12.00000000
      C           10.33804900     0.50000000    12.00000000
      C           11.56780500     1.21000000    12.00000000
      C           11.56780500     2.63000000    12.00000000
      C           10.33804900     3.34000000    12.00000000
      C           10.33804900     4.76000000    12.00000000
      C           11.56780500     5.47000000    12.00000000
      C           11.56780500     6.89000000    12.00000000
      C           10.33804900     7.60000000    12.00000000
      C           10.33804900     9.02000000    12.00000000
      C           11.56780500     9.73000000    12.00000000
      C           11.56780500    11.15000000    12.00000000
      C           10.33804900    11.86000000    12.00000000
      C           10.33804900    13.28000000    12.00000000
      C           11.56780500    13.99000000    12.00000000
      C           11.56780500    15.41000000    12.00000000
      C           10.33804900    16.12000000    12.00000000
      C           10.33804900    17.54000000    12.00000000
      C           11.56780500    18.25000000    12.00000000
      C           11.56780500    19.67000000    12.00000000
      C           10.33804900    20.38000000    12.00000000
      C           10.33804900    21.80000000    12.00000000
      C           11.56780500    22.51000000    12.00000000
      C           11.56780500    23.93000000    12.00000000
      C           10.33804900    24.64000000    12.00000000
      C           12.79756100     0.50000000    12.00000000
      C           14.02731700     1.21000000    12.00000000
      C           14.02731700     2.63000000    12.00000000
      C           12.79756100     3.34000000    12.00000000
      C           12.79756100     4.76000000    12.00000000
      C           14.02731700     5.47000000    12.00000000
      C           14.02731700     6.89000000    12.00000000
      C           12.79756100     7.60000000    12.00000000
      C           12.79756100     9.02000000    12.00000000
      C           14.02731700     9.73000000    12.00000000
      C           14.02731700    11.15000000    12.00000000
      C           12.79756100    11.86000000    12.00000000
      C           12.79756100    13.28000000    12.00000000
      C           14.02731700    13.99000000    12.00000000
      C           14.02731700    15.41000000    12.00000000
      C           12.79756100    16.12000000    12.00000000
      C           12.79756100    17.54000000    12.00000000
      C           14.02731700    18.25000000    12.00000000
      C           14.02731700    19.67000000    12.00000000
      C           12.79756100    20.38000000    12.00000000
      C           12.79756100    21.80000000    12.00000000
      C           14.02731700    22.51000000    12.00000000
      C           14.02731700    23.93000000    12.00000000
      C           12.79756100    24.64000000    12.00000000
      O            7.87853600    13.28000000    13.43000000
      H            7.87853600    13.28000000    14.39000000
      H            7.82282684    13.24761537    10.47602823
      I            9.14379605    10.96079140    15.79755542
      I           11.22531871    13.04775454    15.61156446
      I           16.06776930    16.24984539    15.56296498
      I           14.05689809    14.11974950    15.73203196
    &END COORD
    &KIND C
      BASIS_SET DZVP-MOLOPT-SR-GTH
      POTENTIAL GTH-PBE-q4
    &END KIND
    &KIND H
      BASIS_SET DZVP-MOLOPT-SR-GTH
      POTENTIAL GTH-PBE-q1
    &END KIND
    &KIND O
      BASIS_SET DZVP-MOLOPT-SR-GTH
      POTENTIAL GTH-PBE-q6
    &END KIND
    &KIND I
      BASIS_SET DZVP-MOLOPT-SR-GTH
      POTENTIAL GTH-PBE-q7
    &END KIND
  &END SUBSYS
&END FORCE_EVAL

