! Generated from optimized-coordinate source: pass: basal_pristine_periodic_slab selected from attempt=local_refine_from_best_frame; source=basal_geo_opt_refine/basal_pristine_periodic_slab_i2_adsorbate_only_d3_geo_opt_refine_from_best_frame-pos-1.xyz; source_step=2; E=-843.5468841222
! Original initial-geometry input is preserved next to this file.
&GLOBAL
  PROJECT basal_pristine_periodic_slab_complex_d3_sp_from_geo_opt
  RUN_TYPE ENERGY
  PRINT_LEVEL LOW
&END GLOBAL
&FORCE_EVAL
  METHOD Quickstep
  &DFT
    BASIS_SET_FILE_NAME /opt/cp2k_sanity/env/share/cp2k/data/BASIS_MOLOPT
    POTENTIAL_FILE_NAME /opt/cp2k_sanity/env/share/cp2k/data/GTH_POTENTIALS
    CHARGE 0
    MULTIPLICITY 1
    &MGRID
      CUTOFF 150
      REL_CUTOFF 30
    &END MGRID
    &SCF
      EPS_SCF 1.0E-5
      MAX_SCF 260
      SCF_GUESS ATOMIC
      &OT
        PRECONDITIONER FULL_SINGLE_INVERSE
        MINIMIZER DIIS
      &END OT
      &OUTER_SCF
        MAX_SCF 10
      &END OUTER_SCF
    &END SCF
    &XC
      &XC_FUNCTIONAL PBE
      &END XC_FUNCTIONAL
      &VDW_POTENTIAL
        POTENTIAL_TYPE PAIR_POTENTIAL
        &PAIR_POTENTIAL
          TYPE DFTD3(BJ)
          PARAMETER_FILE_NAME /opt/cp2k_sanity/env/share/cp2k/data/dftd3.dat
          REFERENCE_FUNCTIONAL PBE
        &END PAIR_POTENTIAL
      &END VDW_POTENTIAL
    &END XC
    &POISSON
      PERIODIC XYZ
    &END POISSON
    &PRINT
      &MULLIKEN ON
      &END MULLIKEN
      &HIRSHFELD ON
        SELF_CONSISTENT T
      &END HIRSHFELD
      &PDOS ON
        COMPONENTS T
        NLUMO 40
        COMMON_ITERATION_LEVELS 0
      &END PDOS
    &END PRINT
  &END DFT
  &SUBSYS
    &CELL
      A 14.75707288 0.00000000 0.00000000
      B 0.00000000 25.56000000 0.00000000
      C 0.00000000 0.00000000 24.00000000
      PERIODIC XYZ
    &END CELL
    &COORD
      C         0.5000000000        0.5000000000       12.0000000000
      C         1.7297560000        1.2100000000       12.0000000000
      C         1.7297560000        2.6300000000       12.0000000000
      C         0.5000000000        3.3400000000       12.0000000000
      C         0.5000000000        4.7600000000       12.0000000000
      C         1.7297560000        5.4700000000       12.0000000000
      C         1.7297560000        6.8900000000       12.0000000000
      C         0.5000000000        7.6000000000       12.0000000000
      C         0.5000000000        9.0200000000       12.0000000000
      C         1.7297560000        9.7300000000       12.0000000000
      C         1.7297560000       11.1500000000       12.0000000000
      C         0.5000000000       11.8600000000       12.0000000000
      C         0.5000000000       13.2800000000       12.0000000000
      C         1.7297560000       13.9900000000       12.0000000000
      C         1.7297560000       15.4100000000       12.0000000000
      C         0.5000000000       16.1200000000       12.0000000000
      C         0.5000000000       17.5400000000       12.0000000000
      C         1.7297560000       18.2500000000       12.0000000000
      C         1.7297560000       19.6700000000       12.0000000000
      C         0.5000000000       20.3800000000       12.0000000000
      C         0.5000000000       21.8000000000       12.0000000000
      C         1.7297560000       22.5100000000       12.0000000000
      C         1.7297560000       23.9300000000       12.0000000000
      C         0.5000000000       24.6400000000       12.0000000000
      C         2.9595120000        0.5000000000       12.0000000000
      C         4.1892680000        1.2100000000       12.0000000000
      C         4.1892680000        2.6300000000       12.0000000000
      C         2.9595120000        3.3400000000       12.0000000000
      C         2.9595120000        4.7600000000       12.0000000000
      C         4.1892680000        5.4700000000       12.0000000000
      C         4.1892680000        6.8900000000       12.0000000000
      C         2.9595120000        7.6000000000       12.0000000000
      C         2.9595120000        9.0200000000       12.0000000000
      C         4.1892680000        9.7300000000       12.0000000000
      C         4.1892680000       11.1500000000       12.0000000000
      C         2.9595120000       11.8600000000       12.0000000000
      C         2.9595120000       13.2800000000       12.0000000000
      C         4.1892680000       13.9900000000       12.0000000000
      C         4.1892680000       15.4100000000       12.0000000000
      C         2.9595120000       16.1200000000       12.0000000000
      C         2.9595120000       17.5400000000       12.0000000000
      C         4.1892680000       18.2500000000       12.0000000000
      C         4.1892680000       19.6700000000       12.0000000000
      C         2.9595120000       20.3800000000       12.0000000000
      C         2.9595120000       21.8000000000       12.0000000000
      C         4.1892680000       22.5100000000       12.0000000000
      C         4.1892680000       23.9300000000       12.0000000000
      C         2.9595120000       24.6400000000       12.0000000000
      C         5.4190240000        0.5000000000       12.0000000000
      C         6.6487800000        1.2100000000       12.0000000000
      C         6.6487800000        2.6300000000       12.0000000000
      C         5.4190240000        3.3400000000       12.0000000000
      C         5.4190240000        4.7600000000       12.0000000000
      C         6.6487800000        5.4700000000       12.0000000000
      C         6.6487800000        6.8900000000       12.0000000000
      C         5.4190240000        7.6000000000       12.0000000000
      C         5.4190240000        9.0200000000       12.0000000000
      C         6.6487800000        9.7300000000       12.0000000000
      C         6.6487800000       11.1500000000       12.0000000000
      C         5.4190240000       11.8600000000       12.0000000000
      C         5.4190240000       13.2800000000       12.0000000000
      C         6.6487800000       13.9900000000       12.0000000000
      C         6.6487800000       15.4100000000       12.0000000000
      C         5.4190240000       16.1200000000       12.0000000000
      C         5.4190240000       17.5400000000       12.0000000000
      C         6.6487800000       18.2500000000       12.0000000000
      C         6.6487800000       19.6700000000       12.0000000000
      C         5.4190240000       20.3800000000       12.0000000000
      C         5.4190240000       21.8000000000       12.0000000000
      C         6.6487800000       22.5100000000       12.0000000000
      C         6.6487800000       23.9300000000       12.0000000000
      C         5.4190240000       24.6400000000       12.0000000000
      C         7.8785360000        0.5000000000       12.0000000000
      C         9.1082930000        1.2100000000       12.0000000000
      C         9.1082930000        2.6300000000       12.0000000000
      C         7.8785360000        3.3400000000       12.0000000000
      C         7.8785360000        4.7600000000       12.0000000000
      C         9.1082930000        5.4700000000       12.0000000000
      C         9.1082930000        6.8900000000       12.0000000000
      C         7.8785360000        7.6000000000       12.0000000000
      C         7.8785360000        9.0200000000       12.0000000000
      C         9.1082930000        9.7300000000       12.0000000000
      C         9.1082930000       11.1500000000       12.0000000000
      C         7.8785360000       11.8600000000       12.0000000000
      C         7.8785360000       13.2800000000       12.0000000000
      C         9.1082930000       13.9900000000       12.0000000000
      C         9.1082930000       15.4100000000       12.0000000000
      C         7.8785360000       16.1200000000       12.0000000000
      C         7.8785360000       17.5400000000       12.0000000000
      C         9.1082930000       18.2500000000       12.0000000000
      C         9.1082930000       19.6700000000       12.0000000000
      C         7.8785360000       20.3800000000       12.0000000000
      C         7.8785360000       21.8000000000       12.0000000000
      C         9.1082930000       22.5100000000       12.0000000000
      C         9.1082930000       23.9300000000       12.0000000000
      C         7.8785360000       24.6400000000       12.0000000000
      C        10.3380490000        0.5000000000       12.0000000000
      C        11.5678050000        1.2100000000       12.0000000000
      C        11.5678050000        2.6300000000       12.0000000000
      C        10.3380490000        3.3400000000       12.0000000000
      C        10.3380490000        4.7600000000       12.0000000000
      C        11.5678050000        5.4700000000       12.0000000000
      C        11.5678050000        6.8900000000       12.0000000000
      C        10.3380490000        7.6000000000       12.0000000000
      C        10.3380490000        9.0200000000       12.0000000000
      C        11.5678050000        9.7300000000       12.0000000000
      C        11.5678050000       11.1500000000       12.0000000000
      C        10.3380490000       11.8600000000       12.0000000000
      C        10.3380490000       13.2800000000       12.0000000000
      C        11.5678050000       13.9900000000       12.0000000000
      C        11.5678050000       15.4100000000       12.0000000000
      C        10.3380490000       16.1200000000       12.0000000000
      C        10.3380490000       17.5400000000       12.0000000000
      C        11.5678050000       18.2500000000       12.0000000000
      C        11.5678050000       19.6700000000       12.0000000000
      C        10.3380490000       20.3800000000       12.0000000000
      C        10.3380490000       21.8000000000       12.0000000000
      C        11.5678050000       22.5100000000       12.0000000000
      C        11.5678050000       23.9300000000       12.0000000000
      C        10.3380490000       24.6400000000       12.0000000000
      C        12.7975610000        0.5000000000       12.0000000000
      C        14.0273170000        1.2100000000       12.0000000000
      C        14.0273170000        2.6300000000       12.0000000000
      C        12.7975610000        3.3400000000       12.0000000000
      C        12.7975610000        4.7600000000       12.0000000000
      C        14.0273170000        5.4700000000       12.0000000000
      C        14.0273170000        6.8900000000       12.0000000000
      C        12.7975610000        7.6000000000       12.0000000000
      C        12.7975610000        9.0200000000       12.0000000000
      C        14.0273170000        9.7300000000       12.0000000000
      C        14.0273170000       11.1500000000       12.0000000000
      C        12.7975610000       11.8600000000       12.0000000000
      C        12.7975610000       13.2800000000       12.0000000000
      C        14.0273170000       13.9900000000       12.0000000000
      C        14.0273170000       15.4100000000       12.0000000000
      C        12.7975610000       16.1200000000       12.0000000000
      C        12.7975610000       17.5400000000       12.0000000000
      C        14.0273170000       18.2500000000       12.0000000000
      C        14.0273170000       19.6700000000       12.0000000000
      C        12.7975610000       20.3800000000       12.0000000000
      C        12.7975610000       21.8000000000       12.0000000000
      C        14.0273170000       22.5100000000       12.0000000000
      C        14.0273170000       23.9300000000       12.0000000000
      C        12.7975610000       24.6400000000       12.0000000000
      I         6.3199610045       12.7839762644       15.6622796978
      I         9.0999014481       12.7195392563       15.5952152292
    &END COORD
    &KIND C
      BASIS_SET DZVP-MOLOPT-SR-GTH
      POTENTIAL GTH-PBE-q4
    &END KIND
    &KIND I
      BASIS_SET DZVP-MOLOPT-SR-GTH
      POTENTIAL GTH-PBE-q7
    &END KIND
  &END SUBSYS
&END FORCE_EVAL
