&GLOBAL
  PROJECT OH_functionalized_basal_periodic_slab_bare_surface_d3_sp
  RUN_TYPE ENERGY
  PRINT_LEVEL LOW
&END GLOBAL
&FORCE_EVAL
  METHOD Quickstep
  &DFT
    BASIS_SET_FILE_NAME /opt/cp2k_sanity/env/share/cp2k/data/BASIS_MOLOPT
    POTENTIAL_FILE_NAME /opt/cp2k_sanity/env/share/cp2k/data/GTH_POTENTIALS
    CHARGE 0
    MULTIPLICITY 1
    &MGRID
      CUTOFF 150
      REL_CUTOFF 30
    &END MGRID
    &SCF
      EPS_SCF 1.0E-5
      MAX_SCF 260
      SCF_GUESS ATOMIC
      &OT
        PRECONDITIONER FULL_SINGLE_INVERSE
        MINIMIZER DIIS
      &END OT
      &OUTER_SCF
        MAX_SCF 10
      &END OUTER_SCF
    &END SCF
    &XC
      &XC_FUNCTIONAL PBE
      &END XC_FUNCTIONAL
      &VDW_POTENTIAL
        POTENTIAL_TYPE PAIR_POTENTIAL
        &PAIR_POTENTIAL
          TYPE DFTD3(BJ)
          PARAMETER_FILE_NAME /opt/cp2k_sanity/env/share/cp2k/data/dftd3.dat
          REFERENCE_FUNCTIONAL PBE
        &END PAIR_POTENTIAL
      &END VDW_POTENTIAL
    &END XC
    &POISSON
      PERIODIC XYZ
    &END POISSON
    &PRINT
      &MULLIKEN ON
      &END MULLIKEN
      &HIRSHFELD ON
        SELF_CONSISTENT T
      &END HIRSHFELD
      &PDOS ON
        COMPONENTS T
        NLUMO 40
        COMMON_ITERATION_LEVELS 0
      &END PDOS
    &END PRINT
  &END DFT
  &SUBSYS
    &CELL
      A 14.75707288 0.00000000 0.00000000
      B 0.00000000 25.56000000 0.00000000
      C 0.00000000 0.00000000 24.00000000
      PERIODIC XYZ
    &END CELL
    &COORD
      C       0.500000      0.500000     12.000000
      C       1.729756      1.210000     12.000000
      C       1.729756      2.630000     12.000000
      C       0.500000      3.340000     12.000000
      C       0.500000      4.760000     12.000000
      C       1.729756      5.470000     12.000000
      C       1.729756      6.890000     12.000000
      C       0.500000      7.600000     12.000000
      C       0.500000      9.020000     12.000000
      C       1.729756      9.730000     12.000000
      C       1.729756     11.150000     12.000000
      C       0.500000     11.860000     12.000000
      C       0.500000     13.280000     12.000000
      C       1.729756     13.990000     12.000000
      C       1.729756     15.410000     12.000000
      C       0.500000     16.120000     12.000000
      C       0.500000     17.540000     12.000000
      C       1.729756     18.250000     12.000000
      C       1.729756     19.670000     12.000000
      C       0.500000     20.380000     12.000000
      C       0.500000     21.800000     12.000000
      C       1.729756     22.510000     12.000000
      C       1.729756     23.930000     12.000000
      C       0.500000     24.640000     12.000000
      C       2.959512      0.500000     12.000000
      C       4.189268      1.210000     12.000000
      C       4.189268      2.630000     12.000000
      C       2.959512      3.340000     12.000000
      C       2.959512      4.760000     12.000000
      C       4.189268      5.470000     12.000000
      C       4.189268      6.890000     12.000000
      C       2.959512      7.600000     12.000000
      C       2.959512      9.020000     12.000000
      C       4.189268      9.730000     12.000000
      C       4.189268     11.150000     12.000000
      C       2.959512     11.860000     12.000000
      C       2.959512     13.280000     12.000000
      C       4.189268     13.990000     12.000000
      C       4.189268     15.410000     12.000000
      C       2.959512     16.120000     12.000000
      C       2.959512     17.540000     12.000000
      C       4.189268     18.250000     12.000000
      C       4.189268     19.670000     12.000000
      C       2.959512     20.380000     12.000000
      C       2.959512     21.800000     12.000000
      C       4.189268     22.510000     12.000000
      C       4.189268     23.930000     12.000000
      C       2.959512     24.640000     12.000000
      C       5.419024      0.500000     12.000000
      C       6.648780      1.210000     12.000000
      C       6.648780      2.630000     12.000000
      C       5.419024      3.340000     12.000000
      C       5.419024      4.760000     12.000000
      C       6.648780      5.470000     12.000000
      C       6.648780      6.890000     12.000000
      C       5.419024      7.600000     12.000000
      C       5.419024      9.020000     12.000000
      C       6.648780      9.730000     12.000000
      C       6.648780     11.150000     12.000000
      C       5.419024     11.860000     12.000000
      C       5.419024     13.280000     12.000000
      C       6.648780     13.990000     12.000000
      C       6.648780     15.410000     12.000000
      C       5.419024     16.120000     12.000000
      C       5.419024     17.540000     12.000000
      C       6.648780     18.250000     12.000000
      C       6.648780     19.670000     12.000000
      C       5.419024     20.380000     12.000000
      C       5.419024     21.800000     12.000000
      C       6.648780     22.510000     12.000000
      C       6.648780     23.930000     12.000000
      C       5.419024     24.640000     12.000000
      C       7.878536      0.500000     12.000000
      C       9.108293      1.210000     12.000000
      C       9.108293      2.630000     12.000000
      C       7.878536      3.340000     12.000000
      C       7.878536      4.760000     12.000000
      C       9.108293      5.470000     12.000000
      C       9.108293      6.890000     12.000000
      C       7.878536      7.600000     12.000000
      C       7.878536      9.020000     12.000000
      C       9.108293      9.730000     12.000000
      C       9.108293     11.150000     12.000000
      C       7.878536     11.860000     12.000000
      C       7.878536     13.280000     12.000000
      C       9.108293     13.990000     12.000000
      C       9.108293     15.410000     12.000000
      C       7.878536     16.120000     12.000000
      C       7.878536     17.540000     12.000000
      C       9.108293     18.250000     12.000000
      C       9.108293     19.670000     12.000000
      C       7.878536     20.380000     12.000000
      C       7.878536     21.800000     12.000000
      C       9.108293     22.510000     12.000000
      C       9.108293     23.930000     12.000000
      C       7.878536     24.640000     12.000000
      C      10.338049      0.500000     12.000000
      C      11.567805      1.210000     12.000000
      C      11.567805      2.630000     12.000000
      C      10.338049      3.340000     12.000000
      C      10.338049      4.760000     12.000000
      C      11.567805      5.470000     12.000000
      C      11.567805      6.890000     12.000000
      C      10.338049      7.600000     12.000000
      C      10.338049      9.020000     12.000000
      C      11.567805      9.730000     12.000000
      C      11.567805     11.150000     12.000000
      C      10.338049     11.860000     12.000000
      C      10.338049     13.280000     12.000000
      C      11.567805     13.990000     12.000000
      C      11.567805     15.410000     12.000000
      C      10.338049     16.120000     12.000000
      C      10.338049     17.540000     12.000000
      C      11.567805     18.250000     12.000000
      C      11.567805     19.670000     12.000000
      C      10.338049     20.380000     12.000000
      C      10.338049     21.800000     12.000000
      C      11.567805     22.510000     12.000000
      C      11.567805     23.930000     12.000000
      C      10.338049     24.640000     12.000000
      C      12.797561      0.500000     12.000000
      C      14.027317      1.210000     12.000000
      C      14.027317      2.630000     12.000000
      C      12.797561      3.340000     12.000000
      C      12.797561      4.760000     12.000000
      C      14.027317      5.470000     12.000000
      C      14.027317      6.890000     12.000000
      C      12.797561      7.600000     12.000000
      C      12.797561      9.020000     12.000000
      C      14.027317      9.730000     12.000000
      C      14.027317     11.150000     12.000000
      C      12.797561     11.860000     12.000000
      C      12.797561     13.280000     12.000000
      C      14.027317     13.990000     12.000000
      C      14.027317     15.410000     12.000000
      C      12.797561     16.120000     12.000000
      C      12.797561     17.540000     12.000000
      C      14.027317     18.250000     12.000000
      C      14.027317     19.670000     12.000000
      C      12.797561     20.380000     12.000000
      C      12.797561     21.800000     12.000000
      C      14.027317     22.510000     12.000000
      C      14.027317     23.930000     12.000000
      C      12.797561     24.640000     12.000000
      O       7.878536     13.280000     13.430000
      H       7.878536     13.280000     14.390000
        H       7.878536     13.280000     10.900000
    &END COORD
    &KIND C
      BASIS_SET DZVP-MOLOPT-SR-GTH
      POTENTIAL GTH-PBE-q4
    &END KIND
    &KIND H
      BASIS_SET DZVP-MOLOPT-SR-GTH
      POTENTIAL GTH-PBE-q1
    &END KIND
    &KIND O
      BASIS_SET DZVP-MOLOPT-SR-GTH
      POTENTIAL GTH-PBE-q6
    &END KIND
  &END SUBSYS
&END FORCE_EVAL
