! Generated from optimized-coordinate source: pass: single_vacancy_periodic_slab selected from attempt=canonical_geo_opt_output; source=single_vacancy_periodic_slab_i2_adsorbate_only_d3_geo_opt-pos-1.xyz; source_step=82; E=-837.5670384354
! Original initial-geometry input is preserved next to this file.
&GLOBAL
  PROJECT single_vacancy_periodic_slab_sanity_optimized_complex_sp
  RUN_TYPE ENERGY
  PRINT_LEVEL LOW
&END GLOBAL
&FORCE_EVAL
  METHOD Quickstep
  &DFT
    BASIS_SET_FILE_NAME /opt/cp2k_sanity/env/share/cp2k/data/BASIS_MOLOPT
    POTENTIAL_FILE_NAME /opt/cp2k_sanity/env/share/cp2k/data/GTH_POTENTIALS
    CHARGE 0
    MULTIPLICITY 3
    LSD
    &MGRID
      CUTOFF 150
      REL_CUTOFF 30
    &END MGRID
    &SCF
      EPS_SCF 5.0E-6
      MAX_SCF 500
      SCF_GUESS ATOMIC
      ADDED_MOS 80
      &SMEAR ON
        METHOD FERMI_DIRAC
        ELECTRONIC_TEMPERATURE 500
      &END SMEAR
      &DIAGONALIZATION
        ALGORITHM STANDARD
      &END DIAGONALIZATION
      &MIXING
        METHOD BROYDEN_MIXING
        ALPHA 0.20
        NBUFFER 8
      &END MIXING
      &OUTER_SCF
        MAX_SCF 20
      &END OUTER_SCF
    &END SCF
    &XC
      &XC_FUNCTIONAL PBE
      &END XC_FUNCTIONAL
      &VDW_POTENTIAL
        POTENTIAL_TYPE PAIR_POTENTIAL
        &PAIR_POTENTIAL
          TYPE DFTD3(BJ)
          PARAMETER_FILE_NAME /opt/cp2k_sanity/env/share/cp2k/data/dftd3.dat
          REFERENCE_FUNCTIONAL PBE
        &END PAIR_POTENTIAL
      &END VDW_POTENTIAL
    &END XC
    &POISSON
      PERIODIC XYZ
    &END POISSON
    &PRINT
      &MULLIKEN ON
      &END MULLIKEN
      &HIRSHFELD ON
        SELF_CONSISTENT T
      &END HIRSHFELD
      &PDOS ON
        COMPONENTS T
        NLUMO 40
        COMMON_ITERATION_LEVELS 0
      &END PDOS
    &END PRINT
  &END DFT
  &SUBSYS
    &CELL
      A 14.75707288 0.00000000 0.00000000
      B 0.00000000 25.56000000 0.00000000
      C 0.00000000 0.00000000 24.00000000
      PERIODIC XYZ
    &END CELL
    &COORD
      C            0.50000000     0.50000000    12.00000000
      C            1.72975600     1.21000000    12.00000000
      C            1.72975600     2.63000000    12.00000000
      C            0.50000000     3.34000000    12.00000000
      C            0.50000000     4.76000000    12.00000000
      C            1.72975600     5.47000000    12.00000000
      C            1.72975600     6.89000000    12.00000000
      C            0.50000000     7.60000000    12.00000000
      C            0.50000000     9.02000000    12.00000000
      C            1.72975600     9.73000000    12.00000000
      C            1.72975600    11.15000000    12.00000000
      C            0.50000000    11.86000000    12.00000000
      C            0.50000000    13.28000000    12.00000000
      C            1.72975600    13.99000000    12.00000000
      C            1.72975600    15.41000000    12.00000000
      C            0.50000000    16.12000000    12.00000000
      C            0.50000000    17.54000000    12.00000000
      C            1.72975600    18.25000000    12.00000000
      C            1.72975600    19.67000000    12.00000000
      C            0.50000000    20.38000000    12.00000000
      C            0.50000000    21.80000000    12.00000000
      C            1.72975600    22.51000000    12.00000000
      C            1.72975600    23.93000000    12.00000000
      C            0.50000000    24.64000000    12.00000000
      C            2.95951200     0.50000000    12.00000000
      C            4.18926800     1.21000000    12.00000000
      C            4.18926800     2.63000000    12.00000000
      C            2.95951200     3.34000000    12.00000000
      C            2.95951200     4.76000000    12.00000000
      C            4.18926800     5.47000000    12.00000000
      C            4.18926800     6.89000000    12.00000000
      C            2.95951200     7.60000000    12.00000000
      C            2.95951200     9.02000000    12.00000000
      C            4.18926800     9.73000000    12.00000000
      C            4.18926800    11.15000000    12.00000000
      C            2.95951200    11.86000000    12.00000000
      C            2.95951200    13.28000000    12.00000000
      C            4.18926800    13.99000000    12.00000000
      C            4.18926800    15.41000000    12.00000000
      C            2.95951200    16.12000000    12.00000000
      C            2.95951200    17.54000000    12.00000000
      C            4.18926800    18.25000000    12.00000000
      C            4.18926800    19.67000000    12.00000000
      C            2.95951200    20.38000000    12.00000000
      C            2.95951200    21.80000000    12.00000000
      C            4.18926800    22.51000000    12.00000000
      C            4.18926800    23.93000000    12.00000000
      C            2.95951200    24.64000000    12.00000000
      C            5.41902400     0.50000000    12.00000000
      C            6.64878000     1.21000000    12.00000000
      C            6.64878000     2.63000000    12.00000000
      C            5.41902400     3.34000000    12.00000000
      C            5.41902400     4.76000000    12.00000000
      C            6.64878000     5.47000000    12.00000000
      C            6.64878000     6.89000000    12.00000000
      C            5.41902400     7.60000000    12.00000000
      C            5.41902400     9.02000000    12.00000000
      C            6.64878000     9.73000000    12.00000000
      C            6.64878000    11.15000000    12.00000000
      C            5.41902400    11.86000000    12.00000000
      C            5.41902400    13.28000000    12.00000000
      C            6.64878000    13.99000000    12.00000000
      C            6.64878000    15.41000000    12.00000000
      C            5.41902400    16.12000000    12.00000000
      C            5.41902400    17.54000000    12.00000000
      C            6.64878000    18.25000000    12.00000000
      C            6.64878000    19.67000000    12.00000000
      C            5.41902400    20.38000000    12.00000000
      C            5.41902400    21.80000000    12.00000000
      C            6.64878000    22.51000000    12.00000000
      C            6.64878000    23.93000000    12.00000000
      C            5.41902400    24.64000000    12.00000000
      C            7.87853600     0.50000000    12.00000000
      C            9.10829300     1.21000000    12.00000000
      C            9.10829300     2.63000000    12.00000000
      C            7.87853600     3.34000000    12.00000000
      C            7.87853600     4.76000000    12.00000000
      C            9.10829300     5.47000000    12.00000000
      C            9.10829300     6.89000000    12.00000000
      C            7.87853600     7.60000000    12.00000000
      C            7.87853600     9.02000000    12.00000000
      C            9.10829300     9.73000000    12.00000000
      C            9.10829300    11.15000000    12.00000000
      C            7.87853600    11.86000000    12.00000000
      C            9.10829300    13.99000000    12.00000000
      C            9.10829300    15.41000000    12.00000000
      C            7.87853600    16.12000000    12.00000000
      C            7.87853600    17.54000000    12.00000000
      C            9.10829300    18.25000000    12.00000000
      C            9.10829300    19.67000000    12.00000000
      C            7.87853600    20.38000000    12.00000000
      C            7.87853600    21.80000000    12.00000000
      C            9.10829300    22.51000000    12.00000000
      C            9.10829300    23.93000000    12.00000000
      C            7.87853600    24.64000000    12.00000000
      C           10.33804900     0.50000000    12.00000000
      C           11.56780500     1.21000000    12.00000000
      C           11.56780500     2.63000000    12.00000000
      C           10.33804900     3.34000000    12.00000000
      C           10.33804900     4.76000000    12.00000000
      C           11.56780500     5.47000000    12.00000000
      C           11.56780500     6.89000000    12.00000000
      C           10.33804900     7.60000000    12.00000000
      C           10.33804900     9.02000000    12.00000000
      C           11.56780500     9.73000000    12.00000000
      C           11.56780500    11.15000000    12.00000000
      C           10.33804900    11.86000000    12.00000000
      C           10.33804900    13.28000000    12.00000000
      C           11.56780500    13.99000000    12.00000000
      C           11.56780500    15.41000000    12.00000000
      C           10.33804900    16.12000000    12.00000000
      C           10.33804900    17.54000000    12.00000000
      C           11.56780500    18.25000000    12.00000000
      C           11.56780500    19.67000000    12.00000000
      C           10.33804900    20.38000000    12.00000000
      C           10.33804900    21.80000000    12.00000000
      C           11.56780500    22.51000000    12.00000000
      C           11.56780500    23.93000000    12.00000000
      C           10.33804900    24.64000000    12.00000000
      C           12.79756100     0.50000000    12.00000000
      C           14.02731700     1.21000000    12.00000000
      C           14.02731700     2.63000000    12.00000000
      C           12.79756100     3.34000000    12.00000000
      C           12.79756100     4.76000000    12.00000000
      C           14.02731700     5.47000000    12.00000000
      C           14.02731700     6.89000000    12.00000000
      C           12.79756100     7.60000000    12.00000000
      C           12.79756100     9.02000000    12.00000000
      C           14.02731700     9.73000000    12.00000000
      C           14.02731700    11.15000000    12.00000000
      C           12.79756100    11.86000000    12.00000000
      C           12.79756100    13.28000000    12.00000000
      C           14.02731700    13.99000000    12.00000000
      C           14.02731700    15.41000000    12.00000000
      C           12.79756100    16.12000000    12.00000000
      C           12.79756100    17.54000000    12.00000000
      C           14.02731700    18.25000000    12.00000000
      C           14.02731700    19.67000000    12.00000000
      C           12.79756100    20.38000000    12.00000000
      C           12.79756100    21.80000000    12.00000000
      C           14.02731700    22.51000000    12.00000000
      C           14.02731700    23.93000000    12.00000000
      C           12.79756100    24.64000000    12.00000000
      I            6.64436723    12.71823016    15.66433348
      I            9.41146612    12.72778889    15.70713369
    &END COORD
    &KIND C
      BASIS_SET DZVP-MOLOPT-SR-GTH
      POTENTIAL GTH-PBE-q4
    &END KIND
    &KIND C_up
      ELEMENT C
      MAGNETIZATION 1.0
      BASIS_SET DZVP-MOLOPT-SR-GTH
      POTENTIAL GTH-PBE-q4
    &END KIND
    &KIND C_down
      ELEMENT C
      MAGNETIZATION -1.0
      BASIS_SET DZVP-MOLOPT-SR-GTH
      POTENTIAL GTH-PBE-q4
    &END KIND
    &KIND I
      BASIS_SET DZVP-MOLOPT-SR-GTH
      POTENTIAL GTH-PBE-q7
    &END KIND
  &END SUBSYS
&END FORCE_EVAL
